wmc_benchmarks/WMCBench/qwalk-v-chain_nativegates_ibm_qiskit_opt0_3.qasm.cnf
p cnf 391 1992
c p weight 12 0 0
c p weight -12 1 0
c p weight 13 1.0 0
c p weight -13 1 0
c p weight 21 0.707106781186548 0
c p weight 26 0 0
c p weight -26 1 0
c p weight 27 1.0 0
c p weight -27 1 0
c p weight 35 0.707106781186548 0
c p weight 41 0.707106781186548 0
c p weight 44 0.707106781186548 0
c p weight 50 0.707106781186548 0
c p weight 55 0 0
c p weight -55 1 0
c p weight 56 1.0 0
c p weight -56 1 0
c p weight 63 0 0
c p weight -63 1 0
c p weight 64 1.0 0
c p weight -64 1 0
c p weight 72 0.707106781186548 0
c p weight 75 0.707106781186548 0
c p weight 88 0.707106781186548 0
c p weight 95 0.707106781186548 0
c p weight 101 0.707106781186548 0
c p weight 104 0.707106781186548 0
c p weight 110 0.707106781186548 0
c p weight 115 0 0
c p weight -115 1 0
c p weight 116 1.0 0
c p weight -116 1 0
c p weight 123 0 0
c p weight -123 1 0
c p weight 124 1.0 0
c p weight -124 1 0
c p weight 132 0.707106781186548 0
c p weight 135 0.707106781186548 0
c p weight 148 0.707106781186548 0
c p weight 154 0 0
c p weight -154 1 0
c p weight 155 1.0 0
c p weight -155 1 0
c p weight 163 0.707106781186548 0
c p weight 169 0.707106781186548 0
c p weight 172 0.707106781186548 0
c p weight 178 0.707106781186548 0
c p weight 183 0 0
c p weight -183 1 0
c p weight 184 1.0 0
c p weight -184 1 0
c p weight 191 0 0
c p weight -191 1 0
c p weight 192 1.0 0
c p weight -192 1 0
c p weight 200 0.707106781186548 0
c p weight 203 0.707106781186548 0
c p weight 216 0.707106781186548 0
c p weight 223 0.707106781186548 0
c p weight 229 0.707106781186548 0
c p weight 232 0.707106781186548 0
c p weight 238 0.707106781186548 0
c p weight 243 0 0
c p weight -243 1 0
c p weight 244 1.0 0
c p weight -244 1 0
c p weight 251 0 0
c p weight -251 1 0
c p weight 252 1.0 0
c p weight -252 1 0
c p weight 260 0.707106781186548 0
c p weight 263 0.707106781186548 0
c p weight 276 0.707106781186548 0
c p weight 282 0 0
c p weight -282 1 0
c p weight 283 1.0 0
c p weight -283 1 0
c p weight 291 0.707106781186548 0
c p weight 297 0.707106781186548 0
c p weight 300 0.707106781186548 0
c p weight 306 0.707106781186548 0
c p weight 311 0 0
c p weight -311 1 0
c p weight 312 1.0 0
c p weight -312 1 0
c p weight 319 0 0
c p weight -319 1 0
c p weight 320 1.0 0
c p weight -320 1 0
c p weight 328 0.707106781186548 0
c p weight 331 0.707106781186548 0
c p weight 344 0.707106781186548 0
c p weight 351 0.707106781186548 0
c p weight 357 0.707106781186548 0
c p weight 360 0.707106781186548 0
c p weight 366 0.707106781186548 0
c p weight 371 0 0
c p weight -371 1 0
c p weight 372 1.0 0
c p weight -372 1 0
c p weight 380 0.707106781186548 0
c p weight 383 0.707106781186548 0
8 -7 1 0
8 -7 2 0
-8 7 1 0
-8 7 2 0
8 7 -1 -2 0
-8 -7 -1 -2 0
9 1 -2 0
9 -1 2 0
-9 1 2 0
-9 -1 -2 0
10 11 -8 0
10 -8 9 0
-10 11 8 0
-10 8 9 0
10 -8 -1 0
-10 8 -1 0
10 -11 8 1 -9 0
-10 -11 -8 1 -9 0
11 -1 9 0
-11 1 9 0
-12 9 0
11 -12 -1 0
-11 -12 1 0
11 12 1 -9 0
-11 12 -1 -9 0
-13 9 0
11 -13 1 0
-11 -13 -1 0
11 13 -1 -9 0
-11 13 1 -9 0
14 -10 11 0
14 -10 9 0
-14 10 11 0
-14 10 9 0
14 10 -11 -9 0
-14 -10 -11 -9 0
15 11 -9 0
15 -11 9 0
-15 11 9 0
-15 -11 -9 0
16 -14 3 0
16 -14 15 0
-16 14 3 0
-16 14 15 0
16 -14 11 -4 0
16 -14 -11 4 0
-16 14 11 -4 0
-16 14 -11 4 0
16 14 -3 11 4 -15 0
16 14 -3 -11 -4 -15 0
-16 -14 -3 11 4 -15 0
-16 -14 -3 -11 -4 -15 0
18 3 -11 0
18 -3 11 0
-18 3 11 0
-18 -3 -11 0
17 4 -15 0
17 -4 15 0
-17 4 15 0
-17 -4 -15 0
19 20 -16 0
19 -16 18 0
-19 20 16 0
-19 16 18 0
19 -16 -15 0
-19 16 -15 0
19 -20 16 -18 15 0
-19 -20 -16 -18 15 0
20 18 -15 0
-20 18 15 0
21 -18 0
-21 18 0
22 -19 5 0
22 -19 6 0
-22 19 5 0
-22 19 6 0
22 19 -5 -6 0
-22 -19 -5 -6 0
23 5 -6 0
23 -5 6 0
-23 5 6 0
-23 -5 -6 0
24 25 -22 0
24 -22 23 0
-24 25 22 0
-24 22 23 0
24 -22 -5 0
-24 22 -5 0
24 -25 22 5 -23 0
-24 -25 -22 5 -23 0
25 -5 23 0
-25 5 23 0
-26 23 0
25 -26 -5 0
-25 -26 5 0
25 26 5 -23 0
-25 26 -5 -23 0
-27 23 0
25 -27 5 0
-25 -27 -5 0
25 27 -5 -23 0
-25 27 5 -23 0
28 -24 25 0
28 -24 23 0
-28 24 25 0
-28 24 23 0
28 24 -25 -23 0
-28 -24 -25 -23 0
29 25 -23 0
29 -25 23 0
-29 25 23 0
-29 -25 -23 0
30 -28 25 0
30 -28 20 0
-30 28 25 0
-30 28 20 0
30 -28 18 -29 0
30 -28 -18 29 0
-30 28 18 -29 0
-30 28 -18 29 0
30 28 -25 18 29 -20 0
30 28 -25 -18 -29 -20 0
-30 -28 -25 18 29 -20 0
-30 -28 -25 -18 -29 -20 0
32 25 -18 0
32 -25 18 0
-32 25 18 0
-32 -25 -18 0
31 29 -20 0
31 -29 20 0
-31 29 20 0
-31 -29 -20 0
33 -30 32 0
33 -30 20 0
-33 30 32 0
-33 30 20 0
33 -34 -30 0
-33 -34 30 0
33 34 30 -32 -20 0
-33 34 -30 -32 -20 0
34 32 -20 0
-34 32 20 0
35 -32 0
-35 32 0
36 -33 3 0
36 -33 34 0
-36 33 3 0
-36 33 34 0
36 -33 32 -17 0
36 -33 -32 17 0
-36 33 32 -17 0
-36 33 -32 17 0
36 33 -3 32 17 -34 0
36 33 -3 -32 -17 -34 0
-36 -33 -3 32 17 -34 0
-36 -33 -3 -32 -17 -34 0
38 3 -32 0
38 -3 32 0
-38 3 32 0
-38 -3 -32 0
37 17 -34 0
37 -17 34 0
-37 17 34 0
-37 -17 -34 0
39 40 -36 0
39 -36 38 0
-39 40 36 0
-39 36 38 0
39 -36 -34 0
-39 36 -34 0
39 -40 36 -38 34 0
-39 -40 -36 -38 34 0
40 38 -34 0
-40 38 34 0
41 -38 0
-41 38 0
42 -39 3 0
42 -39 37 0
-42 39 3 0
-42 39 37 0
42 -43 -39 0
-42 -43 39 0
42 43 39 -3 -37 0
-42 43 -39 -3 -37 0
43 3 -37 0
-43 3 37 0
44 -3 0
-44 3 0
45 -42 25 0
45 -42 40 0
-45 42 25 0
-45 42 40 0
45 -42 38 -31 0
45 -42 -38 31 0
-45 42 38 -31 0
-45 42 -38 31 0
45 42 -25 38 31 -40 0
45 42 -25 -38 -31 -40 0
-45 -42 -25 38 31 -40 0
-45 -42 -25 -38 -31 -40 0
47 25 -38 0
47 -25 38 0
-47 25 38 0
-47 -25 -38 0
46 31 -40 0
46 -31 40 0
-46 31 40 0
-46 -31 -40 0
48 -45 47 0
48 -45 40 0
-48 45 47 0
-48 45 40 0
48 -49 -45 0
-48 -49 45 0
48 49 45 -47 -40 0
-48 49 -45 -47 -40 0
49 47 -40 0
-49 47 40 0
50 -47 0
-50 47 0
51 -48 47 0
51 -48 49 0
-51 48 47 0
-51 48 49 0
51 48 -47 -49 0
-51 -48 -47 -49 0
52 47 -49 0
52 -47 49 0
-52 47 49 0
-52 -47 -49 0
53 54 -51 0
53 -51 52 0
-53 54 51 0
-53 51 52 0
53 -51 -47 0
-53 51 -47 0
53 -54 51 47 -52 0
-53 -54 -51 47 -52 0
54 -47 52 0
-54 47 52 0
-55 52 0
54 -55 -47 0
-54 -55 47 0
54 55 47 -52 0
-54 55 -47 -52 0
-56 52 0
54 -56 47 0
-54 -56 -47 0
54 56 -47 -52 0
-54 56 47 -52 0
57 -53 54 0
57 -53 52 0
-57 53 54 0
-57 53 52 0
57 53 -54 -52 0
-57 -53 -54 -52 0
58 54 -52 0
58 -54 52 0
-58 54 52 0
-58 -54 -52 0
59 -57 54 0
59 -57 58 0
-59 57 54 0
-59 57 58 0
59 57 -54 -58 0
-59 -57 -54 -58 0
60 54 -58 0
60 -54 58 0
-60 54 58 0
-60 -54 -58 0
61 62 -59 0
61 -59 60 0
-61 62 59 0
-61 59 60 0
61 -59 -54 0
-61 59 -54 0
61 -62 59 54 -60 0
-61 -62 -59 54 -60 0
62 -54 60 0
-62 54 60 0
-63 60 0
62 -63 -54 0
-62 -63 54 0
62 63 54 -60 0
-62 63 -54 -60 0
-64 60 0
62 -64 54 0
-62 -64 -54 0
62 64 -54 -60 0
-62 64 54 -60 0
65 -61 62 0
65 -61 60 0
-65 61 62 0
-65 61 60 0
65 61 -62 -60 0
-65 -61 -62 -60 0
66 62 -60 0
66 -62 60 0
-66 62 60 0
-66 -62 -60 0
67 -65 25 0
67 -65 43 0
-67 65 25 0
-67 65 43 0
67 -65 3 -46 0
67 -65 -3 46 0
-67 65 3 -46 0
-67 65 -3 46 0
67 65 -25 3 46 -43 0
67 65 -25 -3 -46 -43 0
-67 -65 -25 3 46 -43 0
-67 -65 -25 -3 -46 -43 0
69 25 -3 0
69 -25 3 0
-69 25 3 0
-69 -25 -3 0
68 46 -43 0
68 -46 43 0
-68 46 43 0
-68 -46 -43 0
70 71 -67 0
70 -67 69 0
-70 71 67 0
-70 67 69 0
70 -67 -43 0
-70 67 -43 0
70 -71 67 -69 43 0
-70 -71 -67 -69 43 0
71 69 -43 0
-71 69 43 0
72 -69 0
-72 69 0
73 -70 25 0
73 -70 68 0
-73 70 25 0
-73 70 68 0
73 -74 -70 0
-73 -74 70 0
73 74 70 -25 -68 0
-73 74 -70 -25 -68 0
74 25 -68 0
-74 25 68 0
75 -25 0
-75 25 0
76 -73 25 0
76 -73 71 0
-76 73 25 0
-76 73 71 0
76 -73 69 -74 0
76 -73 -69 74 0
-76 73 69 -74 0
-76 73 -69 74 0
76 73 -25 69 74 -71 0
76 73 -25 -69 -74 -71 0
-76 -73 -25 69 74 -71 0
-76 -73 -25 -69 -74 -71 0
78 25 -69 0
78 -25 69 0
-78 25 69 0
-78 -25 -69 0
77 74 -71 0
77 -74 71 0
-77 74 71 0
-77 -74 -71 0
79 -76 25 0
79 -76 71 0
-79 76 25 0
-79 76 71 0
79 -76 78 -77 0
79 -76 -78 77 0
-79 76 78 -77 0
-79 76 -78 77 0
79 76 -25 78 77 -71 0
79 76 -25 -78 -77 -71 0
-79 -76 -25 78 77 -71 0
-79 -76 -25 -78 -77 -71 0
81 25 -78 0
81 -25 78 0
-81 25 78 0
-81 -25 -78 0
80 77 -71 0
80 -77 71 0
-80 77 71 0
-80 -77 -71 0
82 79 -71 0
82 -79 71 0
-82 79 71 0
-82 -79 -71 0
83 -82 81 0
83 -82 66 0
-83 82 81 0
-83 82 66 0
83 -82 62 -71 0
83 -82 -62 71 0
-83 82 62 -71 0
-83 82 -62 71 0
83 82 -81 62 71 -66 0
83 82 -81 -62 -71 -66 0
-83 -82 -81 62 71 -66 0
-83 -82 -81 -62 -71 -66 0
85 81 -62 0
85 -81 62 0
-85 81 62 0
-85 -81 -62 0
84 71 -66 0
84 -71 66 0
-84 71 66 0
-84 -71 -66 0
86 87 -83 0
86 -83 85 0
-86 87 83 0
-86 83 85 0
86 -83 -66 0
-86 83 -66 0
86 -87 83 -85 66 0
-86 -87 -83 -85 66 0
87 85 -66 0
-87 85 66 0
88 -85 0
-88 85 0
89 86 -80 0
89 -86 80 0
-89 86 80 0
-89 -86 -80 0
90 -89 25 0
90 -89 87 0
-90 89 25 0
-90 89 87 0
90 -89 85 -80 0
90 -89 -85 80 0
-90 89 85 -80 0
-90 89 -85 80 0
90 89 -25 85 80 -87 0
90 89 -25 -85 -80 -87 0
-90 -89 -25 85 80 -87 0
-90 -89 -25 -85 -80 -87 0
92 25 -85 0
92 -25 85 0
-92 25 85 0
-92 -25 -85 0
91 80 -87 0
91 -80 87 0
-91 80 87 0
-91 -80 -87 0
93 -90 92 0
93 -90 87 0
-93 90 92 0
-93 90 87 0
93 -94 -90 0
-93 -94 90 0
93 94 90 -92 -87 0
-93 94 -90 -92 -87 0
94 92 -87 0
-94 92 87 0
95 -92 0
-95 92 0
96 -93 81 0
96 -93 94 0
-96 93 81 0
-96 93 94 0
96 -93 92 -84 0
96 -93 -92 84 0
-96 93 92 -84 0
-96 93 -92 84 0
96 93 -81 92 84 -94 0
96 93 -81 -92 -84 -94 0
-96 -93 -81 92 84 -94 0
-96 -93 -81 -92 -84 -94 0
98 81 -92 0
98 -81 92 0
-98 81 92 0
-98 -81 -92 0
97 84 -94 0
97 -84 94 0
-97 84 94 0
-97 -84 -94 0
99 100 -96 0
99 -96 98 0
-99 100 96 0
-99 96 98 0
99 -96 -94 0
-99 96 -94 0
99 -100 96 -98 94 0
-99 -100 -96 -98 94 0
100 98 -94 0
-100 98 94 0
101 -98 0
-101 98 0
102 -99 81 0
102 -99 97 0
-102 99 81 0
-102 99 97 0
102 -103 -99 0
-102 -103 99 0
102 103 99 -81 -97 0
-102 103 -99 -81 -97 0
103 81 -97 0
-103 81 97 0
104 -81 0
-104 81 0
105 -102 25 0
105 -102 100 0
-105 102 25 0
-105 102 100 0
105 -102 98 -91 0
105 -102 -98 91 0
-105 102 98 -91 0
-105 102 -98 91 0
105 102 -25 98 91 -100 0
105 102 -25 -98 -91 -100 0
-105 -102 -25 98 91 -100 0
-105 -102 -25 -98 -91 -100 0
107 25 -98 0
107 -25 98 0
-107 25 98 0
-107 -25 -98 0
106 91 -100 0
106 -91 100 0
-106 91 100 0
-106 -91 -100 0
108 -105 107 0
108 -105 100 0
-108 105 107 0
-108 105 100 0
108 -109 -105 0
-108 -109 105 0
108 109 105 -107 -100 0
-108 109 -105 -107 -100 0
109 107 -100 0
-109 107 100 0
110 -107 0
-110 107 0
111 -108 107 0
111 -108 109 0
-111 108 107 0
-111 108 109 0
111 108 -107 -109 0
-111 -108 -107 -109 0
112 107 -109 0
112 -107 109 0
-112 107 109 0
-112 -107 -109 0
113 114 -111 0
113 -111 112 0
-113 114 111 0
-113 111 112 0
113 -111 -107 0
-113 111 -107 0
113 -114 111 107 -112 0
-113 -114 -111 107 -112 0
114 -107 112 0
-114 107 112 0
-115 112 0
114 -115 -107 0
-114 -115 107 0
114 115 107 -112 0
-114 115 -107 -112 0
-116 112 0
114 -116 107 0
-114 -116 -107 0
114 116 -107 -112 0
-114 116 107 -112 0
117 -113 114 0
117 -113 112 0
-117 113 114 0
-117 113 112 0
117 113 -114 -112 0
-117 -113 -114 -112 0
118 114 -112 0
118 -114 112 0
-118 114 112 0
-118 -114 -112 0
119 -117 114 0
119 -117 118 0
-119 117 114 0
-119 117 118 0
119 117 -114 -118 0
-119 -117 -114 -118 0
120 114 -118 0
120 -114 118 0
-120 114 118 0
-120 -114 -118 0
121 122 -119 0
121 -119 120 0
-121 122 119 0
-121 119 120 0
121 -119 -114 0
-121 119 -114 0
121 -122 119 114 -120 0
-121 -122 -119 114 -120 0
122 -114 120 0
-122 114 120 0
-123 120 0
122 -123 -114 0
-122 -123 114 0
122 123 114 -120 0
-122 123 -114 -120 0
-124 120 0
122 -124 114 0
-122 -124 -114 0
122 124 -114 -120 0
-122 124 114 -120 0
125 -121 122 0
125 -121 120 0
-125 121 122 0
-125 121 120 0
125 121 -122 -120 0
-125 -121 -122 -120 0
126 122 -120 0
126 -122 120 0
-126 122 120 0
-126 -122 -120 0
127 -125 25 0
127 -125 103 0
-127 125 25 0
-127 125 103 0
127 -125 81 -106 0
127 -125 -81 106 0
-127 125 81 -106 0
-127 125 -81 106 0
127 125 -25 81 106 -103 0
127 125 -25 -81 -106 -103 0
-127 -125 -25 81 106 -103 0
-127 -125 -25 -81 -106 -103 0
129 25 -81 0
129 -25 81 0
-129 25 81 0
-129 -25 -81 0
128 106 -103 0
128 -106 103 0
-128 106 103 0
-128 -106 -103 0
130 131 -127 0
130 -127 129 0
-130 131 127 0
-130 127 129 0
130 -127 -103 0
-130 127 -103 0
130 -131 127 -129 103 0
-130 -131 -127 -129 103 0
131 129 -103 0
-131 129 103 0
132 -129 0
-132 129 0
133 -130 25 0
133 -130 128 0
-133 130 25 0
-133 130 128 0
133 -134 -130 0
-133 -134 130 0
133 134 130 -25 -128 0
-133 134 -130 -25 -128 0
134 25 -128 0
-134 25 128 0
135 -25 0
-135 25 0
136 -133 25 0
136 -133 131 0
-136 133 25 0
-136 133 131 0
136 -133 129 -134 0
136 -133 -129 134 0
-136 133 129 -134 0
-136 133 -129 134 0
136 133 -25 129 134 -131 0
136 133 -25 -129 -134 -131 0
-136 -133 -25 129 134 -131 0
-136 -133 -25 -129 -134 -131 0
138 25 -129 0
138 -25 129 0
-138 25 129 0
-138 -25 -129 0
137 134 -131 0
137 -134 131 0
-137 134 131 0
-137 -134 -131 0
139 -136 25 0
139 -136 131 0
-139 136 25 0
-139 136 131 0
139 -136 138 -137 0
139 -136 -138 137 0
-139 136 138 -137 0
-139 136 -138 137 0
139 136 -25 138 137 -131 0
139 136 -25 -138 -137 -131 0
-139 -136 -25 138 137 -131 0
-139 -136 -25 -138 -137 -131 0
141 25 -138 0
141 -25 138 0
-141 25 138 0
-141 -25 -138 0
140 137 -131 0
140 -137 131 0
-140 137 131 0
-140 -137 -131 0
142 139 -131 0
142 -139 131 0
-142 139 131 0
-142 -139 -131 0
143 -142 141 0
143 -142 126 0
-143 142 141 0
-143 142 126 0
143 -142 122 -131 0
143 -142 -122 131 0
-143 142 122 -131 0
-143 142 -122 131 0
143 142 -141 122 131 -126 0
143 142 -141 -122 -131 -126 0
-143 -142 -141 122 131 -126 0
-143 -142 -141 -122 -131 -126 0
145 141 -122 0
145 -141 122 0
-145 141 122 0
-145 -141 -122 0
144 131 -126 0
144 -131 126 0
-144 131 126 0
-144 -131 -126 0
146 147 -143 0
146 -143 145 0
-146 147 143 0
-146 143 145 0
146 -143 -126 0
-146 143 -126 0
146 -147 143 -145 126 0
-146 -147 -143 -145 126 0
147 145 -126 0
-147 145 126 0
148 -145 0
-148 145 0
149 146 -140 0
149 -146 140 0
-149 146 140 0
-149 -146 -140 0
150 -149 25 0
150 -149 140 0
-150 149 25 0
-150 149 140 0
150 149 -25 -140 0
-150 -149 -25 -140 0
151 25 -140 0
151 -25 140 0
-151 25 140 0
-151 -25 -140 0
152 153 -150 0
152 -150 151 0
-152 153 150 0
-152 150 151 0
152 -150 -25 0
-152 150 -25 0
152 -153 150 25 -151 0
-152 -153 -150 25 -151 0
153 -25 151 0
-153 25 151 0
-154 151 0
153 -154 -25 0
-153 -154 25 0
153 154 25 -151 0
-153 154 -25 -151 0
-155 151 0
153 -155 25 0
-153 -155 -25 0
153 155 -25 -151 0
-153 155 25 -151 0
156 -152 153 0
156 -152 151 0
-156 152 153 0
-156 152 151 0
156 152 -153 -151 0
-156 -152 -153 -151 0
157 153 -151 0
157 -153 151 0
-157 153 151 0
-157 -153 -151 0
158 -156 153 0
158 -156 147 0
-158 156 153 0
-158 156 147 0
158 -156 145 -157 0
158 -156 -145 157 0
-158 156 145 -157 0
-158 156 -145 157 0
158 156 -153 145 157 -147 0
158 156 -153 -145 -157 -147 0
-158 -156 -153 145 157 -147 0
-158 -156 -153 -145 -157 -147 0
160 153 -145 0
160 -153 145 0
-160 153 145 0
-160 -153 -145 0
159 157 -147 0
159 -157 147 0
-159 157 147 0
-159 -157 -147 0
161 -158 160 0
161 -158 147 0
-161 158 160 0
-161 158 147 0
161 -162 -158 0
-161 -162 158 0
161 162 158 -160 -147 0
-161 162 -158 -160 -147 0
162 160 -147 0
-162 160 147 0
163 -160 0
-163 160 0
164 -161 141 0
164 -161 162 0
-164 161 141 0
-164 161 162 0
164 -161 160 -144 0
164 -161 -160 144 0
-164 161 160 -144 0
-164 161 -160 144 0
164 161 -141 160 144 -162 0
164 161 -141 -160 -144 -162 0
-164 -161 -141 160 144 -162 0
-164 -161 -141 -160 -144 -162 0
166 141 -160 0
166 -141 160 0
-166 141 160 0
-166 -141 -160 0
165 144 -162 0
165 -144 162 0
-165 144 162 0
-165 -144 -162 0
167 168 -164 0
167 -164 166 0
-167 168 164 0
-167 164 166 0
167 -164 -162 0
-167 164 -162 0
167 -168 164 -166 162 0
-167 -168 -164 -166 162 0
168 166 -162 0
-168 166 162 0
169 -166 0
-169 166 0
170 -167 141 0
170 -167 165 0
-170 167 141 0
-170 167 165 0
170 -171 -167 0
-170 -171 167 0
170 171 167 -141 -165 0
-170 171 -167 -141 -165 0
171 141 -165 0
-171 141 165 0
172 -141 0
-172 141 0
173 -170 153 0
173 -170 168 0
-173 170 153 0
-173 170 168 0
173 -170 166 -159 0
173 -170 -166 159 0
-173 170 166 -159 0
-173 170 -166 159 0
173 170 -153 166 159 -168 0
173 170 -153 -166 -159 -168 0
-173 -170 -153 166 159 -168 0
-173 -170 -153 -166 -159 -168 0
175 153 -166 0
175 -153 166 0
-175 153 166 0
-175 -153 -166 0
174 159 -168 0
174 -159 168 0
-174 159 168 0
-174 -159 -168 0
176 -173 175 0
176 -173 168 0
-176 173 175 0
-176 173 168 0
176 -177 -173 0
-176 -177 173 0
176 177 173 -175 -168 0
-176 177 -173 -175 -168 0
177 175 -168 0
-177 175 168 0
178 -175 0
-178 175 0
179 -176 175 0
179 -176 177 0
-179 176 175 0
-179 176 177 0
179 176 -175 -177 0
-179 -176 -175 -177 0
180 175 -177 0
180 -175 177 0
-180 175 177 0
-180 -175 -177 0
181 182 -179 0
181 -179 180 0
-181 182 179 0
-181 179 180 0
181 -179 -175 0
-181 179 -175 0
181 -182 179 175 -180 0
-181 -182 -179 175 -180 0
182 -175 180 0
-182 175 180 0
-183 180 0
182 -183 -175 0
-182 -183 175 0
182 183 175 -180 0
-182 183 -175 -180 0
-184 180 0
182 -184 175 0
-182 -184 -175 0
182 184 -175 -180 0
-182 184 175 -180 0
185 -181 182 0
185 -181 180 0
-185 181 182 0
-185 181 180 0
185 181 -182 -180 0
-185 -181 -182 -180 0
186 182 -180 0
186 -182 180 0
-186 182 180 0
-186 -182 -180 0
187 -185 182 0
187 -185 186 0
-187 185 182 0
-187 185 186 0
187 185 -182 -186 0
-187 -185 -182 -186 0
188 182 -186 0
188 -182 186 0
-188 182 186 0
-188 -182 -186 0
189 190 -187 0
189 -187 188 0
-189 190 187 0
-189 187 188 0
189 -187 -182 0
-189 187 -182 0
189 -190 187 182 -188 0
-189 -190 -187 182 -188 0
190 -182 188 0
-190 182 188 0
-191 188 0
190 -191 -182 0
-190 -191 182 0
190 191 182 -188 0
-190 191 -182 -188 0
-192 188 0
190 -192 182 0
-190 -192 -182 0
190 192 -182 -188 0
-190 192 182 -188 0
193 -189 190 0
193 -189 188 0
-193 189 190 0
-193 189 188 0
193 189 -190 -188 0
-193 -189 -190 -188 0
194 190 -188 0
194 -190 188 0
-194 190 188 0
-194 -190 -188 0
195 -193 153 0
195 -193 171 0
-195 193 153 0
-195 193 171 0
195 -193 141 -174 0
195 -193 -141 174 0
-195 193 141 -174 0
-195 193 -141 174 0
195 193 -153 141 174 -171 0
195 193 -153 -141 -174 -171 0
-195 -193 -153 141 174 -171 0
-195 -193 -153 -141 -174 -171 0
197 153 -141 0
197 -153 141 0
-197 153 141 0
-197 -153 -141 0
196 174 -171 0
196 -174 171 0
-196 174 171 0
-196 -174 -171 0
198 199 -195 0
198 -195 197 0
-198 199 195 0
-198 195 197 0
198 -195 -171 0
-198 195 -171 0
198 -199 195 -197 171 0
-198 -199 -195 -197 171 0
199 197 -171 0
-199 197 171 0
200 -197 0
-200 197 0
201 -198 153 0
201 -198 196 0
-201 198 153 0
-201 198 196 0
201 -202 -198 0
-201 -202 198 0
201 202 198 -153 -196 0
-201 202 -198 -153 -196 0
202 153 -196 0
-202 153 196 0
203 -153 0
-203 153 0
204 -201 153 0
204 -201 199 0
-204 201 153 0
-204 201 199 0
204 -201 197 -202 0
204 -201 -197 202 0
-204 201 197 -202 0
-204 201 -197 202 0
204 201 -153 197 202 -199 0
204 201 -153 -197 -202 -199 0
-204 -201 -153 197 202 -199 0
-204 -201 -153 -197 -202 -199 0
206 153 -197 0
206 -153 197 0
-206 153 197 0
-206 -153 -197 0
205 202 -199 0
205 -202 199 0
-205 202 199 0
-205 -202 -199 0
207 -204 153 0
207 -204 199 0
-207 204 153 0
-207 204 199 0
207 -204 206 -205 0
207 -204 -206 205 0
-207 204 206 -205 0
-207 204 -206 205 0
207 204 -153 206 205 -199 0
207 204 -153 -206 -205 -199 0
-207 -204 -153 206 205 -199 0
-207 -204 -153 -206 -205 -199 0
209 153 -206 0
209 -153 206 0
-209 153 206 0
-209 -153 -206 0
208 205 -199 0
208 -205 199 0
-208 205 199 0
-208 -205 -199 0
210 207 -199 0
210 -207 199 0
-210 207 199 0
-210 -207 -199 0
211 -210 209 0
211 -210 194 0
-211 210 209 0
-211 210 194 0
211 -210 190 -199 0
211 -210 -190 199 0
-211 210 190 -199 0
-211 210 -190 199 0
211 210 -209 190 199 -194 0
211 210 -209 -190 -199 -194 0
-211 -210 -209 190 199 -194 0
-211 -210 -209 -190 -199 -194 0
213 209 -190 0
213 -209 190 0
-213 209 190 0
-213 -209 -190 0
212 199 -194 0
212 -199 194 0
-212 199 194 0
-212 -199 -194 0
214 215 -211 0
214 -211 213 0
-214 215 211 0
-214 211 213 0
214 -211 -194 0
-214 211 -194 0
214 -215 211 -213 194 0
-214 -215 -211 -213 194 0
215 213 -194 0
-215 213 194 0
216 -213 0
-216 213 0
217 214 -208 0
217 -214 208 0
-217 214 208 0
-217 -214 -208 0
218 -217 153 0
218 -217 215 0
-218 217 153 0
-218 217 215 0
218 -217 213 -208 0
218 -217 -213 208 0
-218 217 213 -208 0
-218 217 -213 208 0
218 217 -153 213 208 -215 0
218 217 -153 -213 -208 -215 0
-218 -217 -153 213 208 -215 0
-218 -217 -153 -213 -208 -215 0
220 153 -213 0
220 -153 213 0
-220 153 213 0
-220 -153 -213 0
219 208 -215 0
219 -208 215 0
-219 208 215 0
-219 -208 -215 0
221 -218 220 0
221 -218 215 0
-221 218 220 0
-221 218 215 0
221 -222 -218 0
-221 -222 218 0
221 222 218 -220 -215 0
-221 222 -218 -220 -215 0
222 220 -215 0
-222 220 215 0
223 -220 0
-223 220 0
224 -221 209 0
224 -221 222 0
-224 221 209 0
-224 221 222 0
224 -221 220 -212 0
224 -221 -220 212 0
-224 221 220 -212 0
-224 221 -220 212 0
224 221 -209 220 212 -222 0
224 221 -209 -220 -212 -222 0
-224 -221 -209 220 212 -222 0
-224 -221 -209 -220 -212 -222 0
226 209 -220 0
226 -209 220 0
-226 209 220 0
-226 -209 -220 0
225 212 -222 0
225 -212 222 0
-225 212 222 0
-225 -212 -222 0
227 228 -224 0
227 -224 226 0
-227 228 224 0
-227 224 226 0
227 -224 -222 0
-227 224 -222 0
227 -228 224 -226 222 0
-227 -228 -224 -226 222 0
228 226 -222 0
-228 226 222 0
229 -226 0
-229 226 0
230 -227 209 0
230 -227 225 0
-230 227 209 0
-230 227 225 0
230 -231 -227 0
-230 -231 227 0
230 231 227 -209 -225 0
-230 231 -227 -209 -225 0
231 209 -225 0
-231 209 225 0
232 -209 0
-232 209 0
233 -230 153 0
233 -230 228 0
-233 230 153 0
-233 230 228 0
233 -230 226 -219 0
233 -230 -226 219 0
-233 230 226 -219 0
-233 230 -226 219 0
233 230 -153 226 219 -228 0
233 230 -153 -226 -219 -228 0
-233 -230 -153 226 219 -228 0
-233 -230 -153 -226 -219 -228 0
235 153 -226 0
235 -153 226 0
-235 153 226 0
-235 -153 -226 0
234 219 -228 0
234 -219 228 0
-234 219 228 0
-234 -219 -228 0
236 -233 235 0
236 -233 228 0
-236 233 235 0
-236 233 228 0
236 -237 -233 0
-236 -237 233 0
236 237 233 -235 -228 0
-236 237 -233 -235 -228 0
237 235 -228 0
-237 235 228 0
238 -235 0
-238 235 0
239 -236 235 0
239 -236 237 0
-239 236 235 0
-239 236 237 0
239 236 -235 -237 0
-239 -236 -235 -237 0
240 235 -237 0
240 -235 237 0
-240 235 237 0
-240 -235 -237 0
241 242 -239 0
241 -239 240 0
-241 242 239 0
-241 239 240 0
241 -239 -235 0
-241 239 -235 0
241 -242 239 235 -240 0
-241 -242 -239 235 -240 0
242 -235 240 0
-242 235 240 0
-243 240 0
242 -243 -235 0
-242 -243 235 0
242 243 235 -240 0
-242 243 -235 -240 0
-244 240 0
242 -244 235 0
-242 -244 -235 0
242 244 -235 -240 0
-242 244 235 -240 0
245 -241 242 0
245 -241 240 0
-245 241 242 0
-245 241 240 0
245 241 -242 -240 0
-245 -241 -242 -240 0
246 242 -240 0
246 -242 240 0
-246 242 240 0
-246 -242 -240 0
247 -245 242 0
247 -245 246 0
-247 245 242 0
-247 245 246 0
247 245 -242 -246 0
-247 -245 -242 -246 0
248 242 -246 0
248 -242 246 0
-248 242 246 0
-248 -242 -246 0
249 250 -247 0
249 -247 248 0
-249 250 247 0
-249 247 248 0
249 -247 -242 0
-249 247 -242 0
249 -250 247 242 -248 0
-249 -250 -247 242 -248 0
250 -242 248 0
-250 242 248 0
-251 248 0
250 -251 -242 0
-250 -251 242 0
250 251 242 -248 0
-250 251 -242 -248 0
-252 248 0
250 -252 242 0
-250 -252 -242 0
250 252 -242 -248 0
-250 252 242 -248 0
253 -249 250 0
253 -249 248 0
-253 249 250 0
-253 249 248 0
253 249 -250 -248 0
-253 -249 -250 -248 0
254 250 -248 0
254 -250 248 0
-254 250 248 0
-254 -250 -248 0
255 -253 153 0
255 -253 231 0
-255 253 153 0
-255 253 231 0
255 -253 209 -234 0
255 -253 -209 234 0
-255 253 209 -234 0
-255 253 -209 234 0
255 253 -153 209 234 -231 0
255 253 -153 -209 -234 -231 0
-255 -253 -153 209 234 -231 0
-255 -253 -153 -209 -234 -231 0
257 153 -209 0
257 -153 209 0
-257 153 209 0
-257 -153 -209 0
256 234 -231 0
256 -234 231 0
-256 234 231 0
-256 -234 -231 0
258 259 -255 0
258 -255 257 0
-258 259 255 0
-258 255 257 0
258 -255 -231 0
-258 255 -231 0
258 -259 255 -257 231 0
-258 -259 -255 -257 231 0
259 257 -231 0
-259 257 231 0
260 -257 0
-260 257 0
261 -258 153 0
261 -258 256 0
-261 258 153 0
-261 258 256 0
261 -262 -258 0
-261 -262 258 0
261 262 258 -153 -256 0
-261 262 -258 -153 -256 0
262 153 -256 0
-262 153 256 0
263 -153 0
-263 153 0
264 -261 153 0
264 -261 259 0
-264 261 153 0
-264 261 259 0
264 -261 257 -262 0
264 -261 -257 262 0
-264 261 257 -262 0
-264 261 -257 262 0
264 261 -153 257 262 -259 0
264 261 -153 -257 -262 -259 0
-264 -261 -153 257 262 -259 0
-264 -261 -153 -257 -262 -259 0
266 153 -257 0
266 -153 257 0
-266 153 257 0
-266 -153 -257 0
265 262 -259 0
265 -262 259 0
-265 262 259 0
-265 -262 -259 0
267 -264 153 0
267 -264 259 0
-267 264 153 0
-267 264 259 0
267 -264 266 -265 0
267 -264 -266 265 0
-267 264 266 -265 0
-267 264 -266 265 0
267 264 -153 266 265 -259 0
267 264 -153 -266 -265 -259 0
-267 -264 -153 266 265 -259 0
-267 -264 -153 -266 -265 -259 0
269 153 -266 0
269 -153 266 0
-269 153 266 0
-269 -153 -266 0
268 265 -259 0
268 -265 259 0
-268 265 259 0
-268 -265 -259 0
270 267 -259 0
270 -267 259 0
-270 267 259 0
-270 -267 -259 0
271 -270 269 0
271 -270 254 0
-271 270 269 0
-271 270 254 0
271 -270 250 -259 0
271 -270 -250 259 0
-271 270 250 -259 0
-271 270 -250 259 0
271 270 -269 250 259 -254 0
271 270 -269 -250 -259 -254 0
-271 -270 -269 250 259 -254 0
-271 -270 -269 -250 -259 -254 0
273 269 -250 0
273 -269 250 0
-273 269 250 0
-273 -269 -250 0
272 259 -254 0
272 -259 254 0
-272 259 254 0
-272 -259 -254 0
274 275 -271 0
274 -271 273 0
-274 275 271 0
-274 271 273 0
274 -271 -254 0
-274 271 -254 0
274 -275 271 -273 254 0
-274 -275 -271 -273 254 0
275 273 -254 0
-275 273 254 0
276 -273 0
-276 273 0
277 274 -268 0
277 -274 268 0
-277 274 268 0
-277 -274 -268 0
278 -277 153 0
278 -277 268 0
-278 277 153 0
-278 277 268 0
278 277 -153 -268 0
-278 -277 -153 -268 0
279 153 -268 0
279 -153 268 0
-279 153 268 0
-279 -153 -268 0
280 281 -278 0
280 -278 279 0
-280 281 278 0
-280 278 279 0
280 -278 -153 0
-280 278 -153 0
280 -281 278 153 -279 0
-280 -281 -278 153 -279 0
281 -153 279 0
-281 153 279 0
-282 279 0
281 -282 -153 0
-281 -282 153 0
281 282 153 -279 0
-281 282 -153 -279 0
-283 279 0
281 -283 153 0
-281 -283 -153 0
281 283 -153 -279 0
-281 283 153 -279 0
284 -280 281 0
284 -280 279 0
-284 280 281 0
-284 280 279 0
284 280 -281 -279 0
-284 -280 -281 -279 0
285 281 -279 0
285 -281 279 0
-285 281 279 0
-285 -281 -279 0
286 -284 281 0
286 -284 275 0
-286 284 281 0
-286 284 275 0
286 -284 273 -285 0
286 -284 -273 285 0
-286 284 273 -285 0
-286 284 -273 285 0
286 284 -281 273 285 -275 0
286 284 -281 -273 -285 -275 0
-286 -284 -281 273 285 -275 0
-286 -284 -281 -273 -285 -275 0
288 281 -273 0
288 -281 273 0
-288 281 273 0
-288 -281 -273 0
287 285 -275 0
287 -285 275 0
-287 285 275 0
-287 -285 -275 0
289 -286 288 0
289 -286 275 0
-289 286 288 0
-289 286 275 0
289 -290 -286 0
-289 -290 286 0
289 290 286 -288 -275 0
-289 290 -286 -288 -275 0
290 288 -275 0
-290 288 275 0
291 -288 0
-291 288 0
292 -289 269 0
292 -289 290 0
-292 289 269 0
-292 289 290 0
292 -289 288 -272 0
292 -289 -288 272 0
-292 289 288 -272 0
-292 289 -288 272 0
292 289 -269 288 272 -290 0
292 289 -269 -288 -272 -290 0
-292 -289 -269 288 272 -290 0
-292 -289 -269 -288 -272 -290 0
294 269 -288 0
294 -269 288 0
-294 269 288 0
-294 -269 -288 0
293 272 -290 0
293 -272 290 0
-293 272 290 0
-293 -272 -290 0
295 296 -292 0
295 -292 294 0
-295 296 292 0
-295 292 294 0
295 -292 -290 0
-295 292 -290 0
295 -296 292 -294 290 0
-295 -296 -292 -294 290 0
296 294 -290 0
-296 294 290 0
297 -294 0
-297 294 0
298 -295 269 0
298 -295 293 0
-298 295 269 0
-298 295 293 0
298 -299 -295 0
-298 -299 295 0
298 299 295 -269 -293 0
-298 299 -295 -269 -293 0
299 269 -293 0
-299 269 293 0
300 -269 0
-300 269 0
301 -298 281 0
301 -298 296 0
-301 298 281 0
-301 298 296 0
301 -298 294 -287 0
301 -298 -294 287 0
-301 298 294 -287 0
-301 298 -294 287 0
301 298 -281 294 287 -296 0
301 298 -281 -294 -287 -296 0
-301 -298 -281 294 287 -296 0
-301 -298 -281 -294 -287 -296 0
303 281 -294 0
303 -281 294 0
-303 281 294 0
-303 -281 -294 0
302 287 -296 0
302 -287 296 0
-302 287 296 0
-302 -287 -296 0
304 -301 303 0
304 -301 296 0
-304 301 303 0
-304 301 296 0
304 -305 -301 0
-304 -305 301 0
304 305 301 -303 -296 0
-304 305 -301 -303 -296 0
305 303 -296 0
-305 303 296 0
306 -303 0
-306 303 0
307 -304 303 0
307 -304 305 0
-307 304 303 0
-307 304 305 0
307 304 -303 -305 0
-307 -304 -303 -305 0
308 303 -305 0
308 -303 305 0
-308 303 305 0
-308 -303 -305 0
309 310 -307 0
309 -307 308 0
-309 310 307 0
-309 307 308 0
309 -307 -303 0
-309 307 -303 0
309 -310 307 303 -308 0
-309 -310 -307 303 -308 0
310 -303 308 0
-310 303 308 0
-311 308 0
310 -311 -303 0
-310 -311 303 0
310 311 303 -308 0
-310 311 -303 -308 0
-312 308 0
310 -312 303 0
-310 -312 -303 0
310 312 -303 -308 0
-310 312 303 -308 0
313 -309 310 0
313 -309 308 0
-313 309 310 0
-313 309 308 0
313 309 -310 -308 0
-313 -309 -310 -308 0
314 310 -308 0
314 -310 308 0
-314 310 308 0
-314 -310 -308 0
315 -313 310 0
315 -313 314 0
-315 313 310 0
-315 313 314 0
315 313 -310 -314 0
-315 -313 -310 -314 0
316 310 -314 0
316 -310 314 0
-316 310 314 0
-316 -310 -314 0
317 318 -315 0
317 -315 316 0
-317 318 315 0
-317 315 316 0
317 -315 -310 0
-317 315 -310 0
317 -318 315 310 -316 0
-317 -318 -315 310 -316 0
318 -310 316 0
-318 310 316 0
-319 316 0
318 -319 -310 0
-318 -319 310 0
318 319 310 -316 0
-318 319 -310 -316 0
-320 316 0
318 -320 310 0
-318 -320 -310 0
318 320 -310 -316 0
-318 320 310 -316 0
321 -317 318 0
321 -317 316 0
-321 317 318 0
-321 317 316 0
321 317 -318 -316 0
-321 -317 -318 -316 0
322 318 -316 0
322 -318 316 0
-322 318 316 0
-322 -318 -316 0
323 -321 281 0
323 -321 299 0
-323 321 281 0
-323 321 299 0
323 -321 269 -302 0
323 -321 -269 302 0
-323 321 269 -302 0
-323 321 -269 302 0
323 321 -281 269 302 -299 0
323 321 -281 -269 -302 -299 0
-323 -321 -281 269 302 -299 0
-323 -321 -281 -269 -302 -299 0
325 281 -269 0
325 -281 269 0
-325 281 269 0
-325 -281 -269 0
324 302 -299 0
324 -302 299 0
-324 302 299 0
-324 -302 -299 0
326 327 -323 0
326 -323 325 0
-326 327 323 0
-326 323 325 0
326 -323 -299 0
-326 323 -299 0
326 -327 323 -325 299 0
-326 -327 -323 -325 299 0
327 325 -299 0
-327 325 299 0
328 -325 0
-328 325 0
329 -326 281 0
329 -326 324 0
-329 326 281 0
-329 326 324 0
329 -330 -326 0
-329 -330 326 0
329 330 326 -281 -324 0
-329 330 -326 -281 -324 0
330 281 -324 0
-330 281 324 0
331 -281 0
-331 281 0
332 -329 281 0
332 -329 327 0
-332 329 281 0
-332 329 327 0
332 -329 325 -330 0
332 -329 -325 330 0
-332 329 325 -330 0
-332 329 -325 330 0
332 329 -281 325 330 -327 0
332 329 -281 -325 -330 -327 0
-332 -329 -281 325 330 -327 0
-332 -329 -281 -325 -330 -327 0
334 281 -325 0
334 -281 325 0
-334 281 325 0
-334 -281 -325 0
333 330 -327 0
333 -330 327 0
-333 330 327 0
-333 -330 -327 0
335 -332 281 0
335 -332 327 0
-335 332 281 0
-335 332 327 0
335 -332 334 -333 0
335 -332 -334 333 0
-335 332 334 -333 0
-335 332 -334 333 0
335 332 -281 334 333 -327 0
335 332 -281 -334 -333 -327 0
-335 -332 -281 334 333 -327 0
-335 -332 -281 -334 -333 -327 0
337 281 -334 0
337 -281 334 0
-337 281 334 0
-337 -281 -334 0
336 333 -327 0
336 -333 327 0
-336 333 327 0
-336 -333 -327 0
338 335 -327 0
338 -335 327 0
-338 335 327 0
-338 -335 -327 0
339 -338 337 0
339 -338 322 0
-339 338 337 0
-339 338 322 0
339 -338 318 -327 0
339 -338 -318 327 0
-339 338 318 -327 0
-339 338 -318 327 0
339 338 -337 318 327 -322 0
339 338 -337 -318 -327 -322 0
-339 -338 -337 318 327 -322 0
-339 -338 -337 -318 -327 -322 0
341 337 -318 0
341 -337 318 0
-341 337 318 0
-341 -337 -318 0
340 327 -322 0
340 -327 322 0
-340 327 322 0
-340 -327 -322 0
342 343 -339 0
342 -339 341 0
-342 343 339 0
-342 339 341 0
342 -339 -322 0
-342 339 -322 0
342 -343 339 -341 322 0
-342 -343 -339 -341 322 0
343 341 -322 0
-343 341 322 0
344 -341 0
-344 341 0
345 342 -336 0
345 -342 336 0
-345 342 336 0
-345 -342 -336 0
346 -345 281 0
346 -345 343 0
-346 345 281 0
-346 345 343 0
346 -345 341 -336 0
346 -345 -341 336 0
-346 345 341 -336 0
-346 345 -341 336 0
346 345 -281 341 336 -343 0
346 345 -281 -341 -336 -343 0
-346 -345 -281 341 336 -343 0
-346 -345 -281 -341 -336 -343 0
348 281 -341 0
348 -281 341 0
-348 281 341 0
-348 -281 -341 0
347 336 -343 0
347 -336 343 0
-347 336 343 0
-347 -336 -343 0
349 -346 348 0
349 -346 343 0
-349 346 348 0
-349 346 343 0
349 -350 -346 0
-349 -350 346 0
349 350 346 -348 -343 0
-349 350 -346 -348 -343 0
350 348 -343 0
-350 348 343 0
351 -348 0
-351 348 0
352 -349 337 0
352 -349 350 0
-352 349 337 0
-352 349 350 0
352 -349 348 -340 0
352 -349 -348 340 0
-352 349 348 -340 0
-352 349 -348 340 0
352 349 -337 348 340 -350 0
352 349 -337 -348 -340 -350 0
-352 -349 -337 348 340 -350 0
-352 -349 -337 -348 -340 -350 0
354 337 -348 0
354 -337 348 0
-354 337 348 0
-354 -337 -348 0
353 340 -350 0
353 -340 350 0
-353 340 350 0
-353 -340 -350 0
355 356 -352 0
355 -352 354 0
-355 356 352 0
-355 352 354 0
355 -352 -350 0
-355 352 -350 0
355 -356 352 -354 350 0
-355 -356 -352 -354 350 0
356 354 -350 0
-356 354 350 0
357 -354 0
-357 354 0
358 -355 337 0
358 -355 353 0
-358 355 337 0
-358 355 353 0
358 -359 -355 0
-358 -359 355 0
358 359 355 -337 -353 0
-358 359 -355 -337 -353 0
359 337 -353 0
-359 337 353 0
360 -337 0
-360 337 0
361 -358 281 0
361 -358 356 0
-361 358 281 0
-361 358 356 0
361 -358 354 -347 0
361 -358 -354 347 0
-361 358 354 -347 0
-361 358 -354 347 0
361 358 -281 354 347 -356 0
361 358 -281 -354 -347 -356 0
-361 -358 -281 354 347 -356 0
-361 -358 -281 -354 -347 -356 0
363 281 -354 0
363 -281 354 0
-363 281 354 0
-363 -281 -354 0
362 347 -356 0
362 -347 356 0
-362 347 356 0
-362 -347 -356 0
364 -361 363 0
364 -361 356 0
-364 361 363 0
-364 361 356 0
364 -365 -361 0
-364 -365 361 0
364 365 361 -363 -356 0
-364 365 -361 -363 -356 0
365 363 -356 0
-365 363 356 0
366 -363 0
-366 363 0
367 -364 363 0
367 -364 365 0
-367 364 363 0
-367 364 365 0
367 364 -363 -365 0
-367 -364 -363 -365 0
368 363 -365 0
368 -363 365 0
-368 363 365 0
-368 -363 -365 0
369 370 -367 0
369 -367 368 0
-369 370 367 0
-369 367 368 0
369 -367 -363 0
-369 367 -363 0
369 -370 367 363 -368 0
-369 -370 -367 363 -368 0
370 -363 368 0
-370 363 368 0
-371 368 0
370 -371 -363 0
-370 -371 363 0
370 371 363 -368 0
-370 371 -363 -368 0
-372 368 0
370 -372 363 0
-370 -372 -363 0
370 372 -363 -368 0
-370 372 363 -368 0
373 -369 370 0
373 -369 368 0
-373 369 370 0
-373 369 368 0
373 369 -370 -368 0
-373 -369 -370 -368 0
374 370 -368 0
374 -370 368 0
-374 370 368 0
-374 -370 -368 0
375 -373 281 0
375 -373 359 0
-375 373 281 0
-375 373 359 0
375 -373 337 -362 0
375 -373 -337 362 0
-375 373 337 -362 0
-375 373 -337 362 0
375 373 -281 337 362 -359 0
375 373 -281 -337 -362 -359 0
-375 -373 -281 337 362 -359 0
-375 -373 -281 -337 -362 -359 0
377 281 -337 0
377 -281 337 0
-377 281 337 0
-377 -281 -337 0
376 362 -359 0
376 -362 359 0
-376 362 359 0
-376 -362 -359 0
378 379 -375 0
378 -375 377 0
-378 379 375 0
-378 375 377 0
378 -375 -359 0
-378 375 -359 0
378 -379 375 -377 359 0
-378 -379 -375 -377 359 0
379 377 -359 0
-379 377 359 0
380 -377 0
-380 377 0
381 -378 281 0
381 -378 376 0
-381 378 281 0
-381 378 376 0
381 -382 -378 0
-381 -382 378 0
381 382 378 -281 -376 0
-381 382 -378 -281 -376 0
382 281 -376 0
-382 281 376 0
383 -281 0
-383 281 0
384 -381 281 0
384 -381 379 0
-384 381 281 0
-384 381 379 0
384 -381 377 -382 0
384 -381 -377 382 0
-384 381 377 -382 0
-384 381 -377 382 0
384 381 -281 377 382 -379 0
384 381 -281 -377 -382 -379 0
-384 -381 -281 377 382 -379 0
-384 -381 -281 -377 -382 -379 0
386 281 -377 0
386 -281 377 0
-386 281 377 0
-386 -281 -377 0
385 382 -379 0
385 -382 379 0
-385 382 379 0
-385 -382 -379 0
387 -384 281 0
387 -384 379 0
-387 384 281 0
-387 384 379 0
387 -384 386 -385 0
387 -384 -386 385 0
-387 384 386 -385 0
-387 384 -386 385 0
387 384 -281 386 385 -379 0
387 384 -281 -386 -385 -379 0
-387 -384 -281 386 385 -379 0
-387 -384 -281 -386 -385 -379 0
389 281 -386 0
389 -281 386 0
-389 281 386 0
-389 -281 -386 0
388 385 -379 0
388 -385 379 0
-388 385 379 0
-388 -385 -379 0
390 387 -379 0
390 -387 379 0
-390 387 379 0
-390 -387 -379 0
391 390 -388 0
391 -390 388 0
-391 390 388 0
-391 -390 -388 0
