wmc_benchmarks/MQTBench/qwalk-v-chain_nativegates_ibm_qiskit_opt0_3.qasm
// Used Gate Set: ['id', 'rz', 'sx', 'x', 'cx', 'measure', 'barrier']
OPENQASM 2.0;
include "qelib1.inc";
qreg node[2];
qreg coin[1];
rz(pi/2) node[0];
rx(0.5*pi) node[0];
rz(pi/2) node[0];
cx node[1],node[0];
rz(-pi/4) node[0];
rz(pi/2) coin[0];
rx(0.5*pi) coin[0];
rz(pi/2) coin[0];
cx coin[0],node[0];
rz(pi/4) node[0];
cx node[1],node[0];
rz(-pi/4) node[0];
rz(pi/4) node[1];
cx coin[0],node[0];
rz(pi/4) node[0];
rz(pi/2) node[0];
rx(0.5*pi) node[0];
rz(pi/2) node[0];
rz(pi/2) node[0];
rx(0.5*pi) node[0];
rz(pi/2) node[0];
cx coin[0],node[1];
rz(-pi/4) node[1];
rz(pi/4) coin[0];
cx coin[0],node[1];
cx coin[0],node[1];
x node[1];
cx node[1],node[0];
rz(-pi/4) node[0];
x coin[0];
cx coin[0],node[0];
rz(pi/4) node[0];
cx node[1],node[0];
rz(-pi/4) node[0];
rz(pi/4) node[1];
cx coin[0],node[0];
rz(pi/4) node[0];
rz(pi/2) node[0];
rx(0.5*pi) node[0];
rz(pi/2) node[0];
rz(pi/2) node[0];
rx(0.5*pi) node[0];
rz(pi/2) node[0];
cx coin[0],node[1];
rz(-pi/4) node[1];
rz(pi/4) coin[0];
cx coin[0],node[1];
cx coin[0],node[1];
x node[1];
cx node[1],node[0];
rz(-pi/4) node[0];
x coin[0];
rz(pi/2) coin[0];
rx(0.5*pi) coin[0];
rz(pi/2) coin[0];
cx coin[0],node[0];
rz(pi/4) node[0];
cx node[1],node[0];
rz(-pi/4) node[0];
rz(pi/4) node[1];
cx coin[0],node[0];
rz(pi/4) node[0];
rz(pi/2) node[0];
rx(0.5*pi) node[0];
rz(pi/2) node[0];
rz(pi/2) node[0];
rx(0.5*pi) node[0];
rz(pi/2) node[0];
cx coin[0],node[1];
rz(-pi/4) node[1];
rz(pi/4) coin[0];
cx coin[0],node[1];
cx coin[0],node[1];
x node[1];
cx node[1],node[0];
rz(-pi/4) node[0];
x coin[0];
cx coin[0],node[0];
rz(pi/4) node[0];
cx node[1],node[0];
rz(-pi/4) node[0];
rz(pi/4) node[1];
cx coin[0],node[0];
rz(pi/4) node[0];
rz(pi/2) node[0];
rx(0.5*pi) node[0];
rz(pi/2) node[0];
rz(pi/2) node[0];
rx(0.5*pi) node[0];
rz(pi/2) node[0];
cx coin[0],node[1];
rz(-pi/4) node[1];
rz(pi/4) coin[0];
cx coin[0],node[1];
cx coin[0],node[1];
x node[1];
cx node[1],node[0];
rz(-pi/4) node[0];
x coin[0];
rz(pi/2) coin[0];
rx(0.5*pi) coin[0];
rz(pi/2) coin[0];
cx coin[0],node[0];
rz(pi/4) node[0];
cx node[1],node[0];
rz(-pi/4) node[0];
rz(pi/4) node[1];
cx coin[0],node[0];
rz(pi/4) node[0];
rz(pi/2) node[0];
rx(0.5*pi) node[0];
rz(pi/2) node[0];
rz(pi/2) node[0];
rx(0.5*pi) node[0];
rz(pi/2) node[0];
cx coin[0],node[1];
rz(-pi/4) node[1];
rz(pi/4) coin[0];
cx coin[0],node[1];
cx coin[0],node[1];
x node[1];
cx node[1],node[0];
rz(-pi/4) node[0];
x coin[0];
cx coin[0],node[0];
rz(pi/4) node[0];
cx node[1],node[0];
rz(-pi/4) node[0];
rz(pi/4) node[1];
cx coin[0],node[0];
rz(pi/4) node[0];
rz(pi/2) node[0];
rx(0.5*pi) node[0];
rz(pi/2) node[0];
cx coin[0],node[1];
rz(-pi/4) node[1];
rz(pi/4) coin[0];
cx coin[0],node[1];
cx coin[0],node[1];
x node[1];
x coin[0];
